14994
1 0 1 0 0 1 1 0 0 0 0 1 0 0 1 1 0 1 0 0 1 0 0 0 1 0 0 0 0 0 
6 17 6 2 6 5 2 24 2 0 5 6 6 20 2 20 17 17 5 17 2 2 5 2 5 20 2 24 5 5 5 17 6 5 20 20 24 15 2 17 17 20 15 2 15 14 2 20 17 20 5 2 14 5 6 20 17 5 17 14 17 5 20 17 17 17 5 17 5 5 6 6 11 17 15 20 5 20 2 5 20 17 6 17 2 17 2 2 20 5 2 15 2 17 2 5 2 2 5 6 6 2 17 17 2 5 2 17 20 20 14 2 2 17 17 2 24 15 24 5 11 6 17 20 6 2 5 5 17 5 0 17 24 5 6 14 17 5 20 17 17 20 20 17 20 5 11 5 2 24 